p cnf 257 1334
c p weight 16 0 0
c p weight -16 1 0
c p weight 17 1 0
c p weight -17 1 0
c p weight 24 0 0
c p weight -24 1 0
c p weight 25 1 0
c p weight -25 1 0
c p weight 32 0 0
c p weight -32 1 0
c p weight 33 1 0
c p weight -33 1 0
c p weight 40 0 0
c p weight -40 1 0
c p weight 41 1 0
c p weight -41 1 0
c p weight 47 0.1950903220161283313505151681965799070894718170166015625 0
c p weight -47 1 0
c p weight 48 -0.9807852804032304305792422383092343807220458984375 0
c p weight -48 1 0
c p weight 54 0.1950903220161283313505151681965799070894718170166015625 0
c p weight -54 1 0
c p weight 55 0.9807852804032304305792422383092343807220458984375 0
c p weight -55 1 0
c p weight 61 0.1950903220161283313505151681965799070894718170166015625 0
c p weight -61 1 0
c p weight 62 -0.9807852804032304305792422383092343807220458984375 0
c p weight -62 1 0
c p weight 65 0.9238795325112867384831361050601117312908172607421875 0
c p weight -65 1 0
c p weight 66 0.382683432365089781779232680491986684501171112060546875 0
c p weight -66 1 0
c p weight 72 0.9238795325112867384831361050601117312908172607421875 0
c p weight -72 1 0
c p weight 73 -0.382683432365089781779232680491986684501171112060546875 0
c p weight -73 1 0
c p weight 79 0.9238795325112867384831361050601117312908172607421875 0
c p weight -79 1 0
c p weight 80 0.382683432365089781779232680491986684501171112060546875 0
c p weight -80 1 0
c p weight 83 0.70710678118654752440084436210485 0
c p weight 89 0.70710678118654752440084436210485 0
c p weight 95 0.70710678118654752440084436210485 0
c p weight 107 0.70710678118654752440084436210485 0
c p weight 110 0.9238795325112867384831361050601117312908172607421875 0
c p weight -110 1 0
c p weight 111 -0.382683432365089781779232680491986684501171112060546875 0
c p weight -111 1 0
c p weight 137 0 0
c p weight -137 1 0
c p weight 138 1 0
c p weight -138 1 0
c p weight 146 0.70710678118654752440084436210485 0
c p weight 152 0.70710678118654752440084436210485 0
c p weight 157 0 0
c p weight -157 1 0
c p weight 158 1 0
c p weight -158 1 0
c p weight 166 0.9238795325112867384831361050601117312908172607421875 0
c p weight -166 1 0
c p weight 167 0.382683432365089781779232680491986684501171112060546875 0
c p weight -167 1 0
c p weight 173 0.9238795325112867384831361050601117312908172607421875 0
c p weight -173 1 0
c p weight 174 -0.382683432365089781779232680491986684501171112060546875 0
c p weight -174 1 0
c p weight 177 0.70710678118654752440084436210485 0
c p weight 183 0.70710678118654752440084436210485 0
c p weight 189 0.70710678118654752440084436210485 0
c p weight 194 0 0
c p weight -194 1 0
c p weight 195 1 0
c p weight -195 1 0
c p weight 200 0.9807852804032304305792422383092343807220458984375 0
c p weight -200 1 0
c p weight 201 -0.195090322016128248083788321309839375317096710205078125 0
c p weight -201 1 0
c p weight 207 0.9807852804032304305792422383092343807220458984375 0
c p weight -207 1 0
c p weight 208 0.195090322016128248083788321309839375317096710205078125 0
c p weight -208 1 0
c p weight 214 0.9807852804032304305792422383092343807220458984375 0
c p weight -214 1 0
c p weight 215 -0.195090322016128248083788321309839375317096710205078125 0
c p weight -215 1 0
c p weight 218 0.9238795325112867384831361050601117312908172607421875 0
c p weight -218 1 0
c p weight 219 -0.382683432365089781779232680491986684501171112060546875 0
c p weight -219 1 0
c p weight 225 0.9238795325112867384831361050601117312908172607421875 0
c p weight -225 1 0
c p weight 226 0.382683432365089781779232680491986684501171112060546875 0
c p weight -226 1 0
c p weight 232 0.9238795325112867384831361050601117312908172607421875 0
c p weight -232 1 0
c p weight 233 -0.382683432365089781779232680491986684501171112060546875 0
c p weight -233 1 0
c p weight 236 0.70710678118654752440084436210485 0
c p weight 242 0.70710678118654752440084436210485 0
c p weight 248 0.70710678118654752440084436210485 0
c p weight 253 0 0
c p weight -253 1 0
c p weight 254 1 0
c p weight -254 1 0
c p weight 255 -1 0
c p weight -255 1 0
c p weight 257 0.5 0
257 0
-11 0
-9 0
-7 0
-5 0
-3 0
-1 0
12 -11 1 0
12 -11 2 0
-12 11 1 0
-12 11 2 0
12 11 -1 -2 0
-12 -11 -1 -2 0
13 1 -2 0
13 -1 2 0
-13 1 2 0
-13 -1 -2 0
14 15 -12 0
14 -12 13 0
-14 15 12 0
-14 12 13 0
14 -12 -1 0
-14 12 -1 0
14 -15 12 1 -13 0
-14 -15 -12 1 -13 0
15 -1 13 0
-15 1 13 0
-16 13 0
15 -16 -1 0
-15 -16 1 0
15 16 1 -13 0
-15 16 -1 -13 0
-17 13 0
15 -17 1 0
-15 -17 -1 0
15 17 -1 -13 0
-15 17 1 -13 0
18 -14 15 0
18 -14 13 0
-18 14 15 0
-18 14 13 0
18 14 -15 -13 0
-18 -14 -15 -13 0
19 15 -13 0
19 -15 13 0
-19 15 13 0
-19 -15 -13 0
20 -18 3 0
20 -18 4 0
-20 18 3 0
-20 18 4 0
20 18 -3 -4 0
-20 -18 -3 -4 0
21 3 -4 0
21 -3 4 0
-21 3 4 0
-21 -3 -4 0
22 23 -20 0
22 -20 21 0
-22 23 20 0
-22 20 21 0
22 -20 -3 0
-22 20 -3 0
22 -23 20 3 -21 0
-22 -23 -20 3 -21 0
23 -3 21 0
-23 3 21 0
-24 21 0
23 -24 -3 0
-23 -24 3 0
23 24 3 -21 0
-23 24 -3 -21 0
-25 21 0
23 -25 3 0
-23 -25 -3 0
23 25 -3 -21 0
-23 25 3 -21 0
26 -22 23 0
26 -22 21 0
-26 22 23 0
-26 22 21 0
26 22 -23 -21 0
-26 -22 -23 -21 0
27 23 -21 0
27 -23 21 0
-27 23 21 0
-27 -23 -21 0
28 -26 5 0
28 -26 6 0
-28 26 5 0
-28 26 6 0
28 26 -5 -6 0
-28 -26 -5 -6 0
29 5 -6 0
29 -5 6 0
-29 5 6 0
-29 -5 -6 0
30 31 -28 0
30 -28 29 0
-30 31 28 0
-30 28 29 0
30 -28 -5 0
-30 28 -5 0
30 -31 28 5 -29 0
-30 -31 -28 5 -29 0
31 -5 29 0
-31 5 29 0
-32 29 0
31 -32 -5 0
-31 -32 5 0
31 32 5 -29 0
-31 32 -5 -29 0
-33 29 0
31 -33 5 0
-31 -33 -5 0
31 33 -5 -29 0
-31 33 5 -29 0
34 -30 31 0
34 -30 29 0
-34 30 31 0
-34 30 29 0
34 30 -31 -29 0
-34 -30 -31 -29 0
35 31 -29 0
35 -31 29 0
-35 31 29 0
-35 -31 -29 0
36 -34 7 0
36 -34 8 0
-36 34 7 0
-36 34 8 0
36 34 -7 -8 0
-36 -34 -7 -8 0
37 7 -8 0
37 -7 8 0
-37 7 8 0
-37 -7 -8 0
38 39 -36 0
38 -36 37 0
-38 39 36 0
-38 36 37 0
38 -36 -7 0
-38 36 -7 0
38 -39 36 7 -37 0
-38 -39 -36 7 -37 0
39 -7 37 0
-39 7 37 0
-40 37 0
39 -40 -7 0
-39 -40 7 0
39 40 7 -37 0
-39 40 -7 -37 0
-41 37 0
39 -41 7 0
-39 -41 -7 0
39 41 -7 -37 0
-39 41 7 -37 0
42 -38 39 0
42 -38 37 0
-42 38 39 0
-42 38 37 0
42 38 -39 -37 0
-42 -38 -39 -37 0
43 39 -37 0
43 -39 37 0
-43 39 37 0
-43 -39 -37 0
44 42 -10 0
44 -42 10 0
-44 42 10 0
-44 -42 -10 0
45 -44 9 0
45 -44 10 0
-45 44 9 0
-45 44 10 0
45 -46 -44 0
-45 -46 44 0
45 46 44 -9 -10 0
-45 46 -44 -9 -10 0
46 9 -10 0
-46 9 10 0
-47 9 0
46 -47 -10 0
-46 -47 10 0
46 47 -9 10 0
-46 47 -9 -10 0
-48 9 0
46 -48 10 0
-46 -48 -10 0
46 48 -9 -10 0
-46 48 -9 10 0
49 -45 9 0
49 -45 19 0
-49 45 9 0
-49 45 19 0
49 -45 15 -46 0
49 -45 -15 46 0
-49 45 15 -46 0
-49 45 -15 46 0
49 45 -9 15 46 -19 0
49 45 -9 -15 -46 -19 0
-49 -45 -9 15 46 -19 0
-49 -45 -9 -15 -46 -19 0
51 9 -15 0
51 -9 15 0
-51 9 15 0
-51 -9 -15 0
50 46 -19 0
50 -46 19 0
-50 46 19 0
-50 -46 -19 0
52 -49 51 0
52 -49 19 0
-52 49 51 0
-52 49 19 0
52 -53 -49 0
-52 -53 49 0
52 53 49 -51 -19 0
-52 53 -49 -51 -19 0
53 51 -19 0
-53 51 19 0
-54 51 0
53 -54 -19 0
-53 -54 19 0
53 54 -51 19 0
-53 54 -51 -19 0
-55 51 0
53 -55 19 0
-53 -55 -19 0
53 55 -51 -19 0
-53 55 -51 19 0
56 -52 9 0
56 -52 53 0
-56 52 9 0
-56 52 53 0
56 -52 51 -50 0
56 -52 -51 50 0
-56 52 51 -50 0
-56 52 -51 50 0
56 52 -9 51 50 -53 0
56 52 -9 -51 -50 -53 0
-56 -52 -9 51 50 -53 0
-56 -52 -9 -51 -50 -53 0
58 9 -51 0
58 -9 51 0
-58 9 51 0
-58 -9 -51 0
57 50 -53 0
57 -50 53 0
-57 50 53 0
-57 -50 -53 0
59 -56 58 0
59 -56 53 0
-59 56 58 0
-59 56 53 0
59 -60 -56 0
-59 -60 56 0
59 60 56 -58 -53 0
-59 60 -56 -58 -53 0
60 58 -53 0
-60 58 53 0
-61 58 0
60 -61 -53 0
-60 -61 53 0
60 61 -58 53 0
-60 61 -58 -53 0
-62 58 0
60 -62 53 0
-60 -62 -53 0
60 62 -58 -53 0
-60 62 -58 53 0
63 -59 9 0
63 -59 57 0
-63 59 9 0
-63 59 57 0
63 -64 -59 0
-63 -64 59 0
63 64 59 -9 -57 0
-63 64 -59 -9 -57 0
64 9 -57 0
-64 9 57 0
-65 9 0
64 -65 -57 0
-64 -65 57 0
64 65 -9 57 0
-64 65 -9 -57 0
-66 9 0
64 -66 57 0
-64 -66 -57 0
64 66 -9 -57 0
-64 66 -9 57 0
67 -63 9 0
67 -63 27 0
-67 63 9 0
-67 63 27 0
67 -63 23 -64 0
67 -63 -23 64 0
-67 63 23 -64 0
-67 63 -23 64 0
67 63 -9 23 64 -27 0
67 63 -9 -23 -64 -27 0
-67 -63 -9 23 64 -27 0
-67 -63 -9 -23 -64 -27 0
69 9 -23 0
69 -9 23 0
-69 9 23 0
-69 -9 -23 0
68 64 -27 0
68 -64 27 0
-68 64 27 0
-68 -64 -27 0
70 -67 69 0
70 -67 27 0
-70 67 69 0
-70 67 27 0
70 -71 -67 0
-70 -71 67 0
70 71 67 -69 -27 0
-70 71 -67 -69 -27 0
71 69 -27 0
-71 69 27 0
-72 69 0
71 -72 -27 0
-71 -72 27 0
71 72 -69 27 0
-71 72 -69 -27 0
-73 69 0
71 -73 27 0
-71 -73 -27 0
71 73 -69 -27 0
-71 73 -69 27 0
74 -70 9 0
74 -70 71 0
-74 70 9 0
-74 70 71 0
74 -70 69 -68 0
74 -70 -69 68 0
-74 70 69 -68 0
-74 70 -69 68 0
74 70 -9 69 68 -71 0
74 70 -9 -69 -68 -71 0
-74 -70 -9 69 68 -71 0
-74 -70 -9 -69 -68 -71 0
76 9 -69 0
76 -9 69 0
-76 9 69 0
-76 -9 -69 0
75 68 -71 0
75 -68 71 0
-75 68 71 0
-75 -68 -71 0
77 -74 76 0
77 -74 71 0
-77 74 76 0
-77 74 71 0
77 -78 -74 0
-77 -78 74 0
77 78 74 -76 -71 0
-77 78 -74 -76 -71 0
78 76 -71 0
-78 76 71 0
-79 76 0
78 -79 -71 0
-78 -79 71 0
78 79 -76 71 0
-78 79 -76 -71 0
-80 76 0
78 -80 71 0
-78 -80 -71 0
78 80 -76 -71 0
-78 80 -76 71 0
81 -77 9 0
81 -77 75 0
-81 77 9 0
-81 77 75 0
81 -82 -77 0
-81 -82 77 0
81 82 77 -9 -75 0
-81 82 -77 -9 -75 0
82 9 -75 0
-82 9 75 0
83 -9 0
-83 9 0
84 -81 9 0
84 -81 35 0
-84 81 9 0
-84 81 35 0
84 -81 31 -82 0
84 -81 -31 82 0
-84 81 31 -82 0
-84 81 -31 82 0
84 81 -9 31 82 -35 0
84 81 -9 -31 -82 -35 0
-84 -81 -9 31 82 -35 0
-84 -81 -9 -31 -82 -35 0
86 9 -31 0
86 -9 31 0
-86 9 31 0
-86 -9 -31 0
85 82 -35 0
85 -82 35 0
-85 82 35 0
-85 -82 -35 0
87 88 -84 0
87 -84 86 0
-87 88 84 0
-87 84 86 0
87 -84 -35 0
-87 84 -35 0
87 -88 84 -86 35 0
-87 -88 -84 -86 35 0
88 86 -35 0
-88 86 35 0
89 -86 0
-89 86 0
90 -87 9 0
90 -87 88 0
-90 87 9 0
-90 87 88 0
90 -87 86 -85 0
90 -87 -86 85 0
-90 87 86 -85 0
-90 87 -86 85 0
90 87 -9 86 85 -88 0
90 87 -9 -86 -85 -88 0
-90 -87 -9 86 85 -88 0
-90 -87 -9 -86 -85 -88 0
92 9 -86 0
92 -9 86 0
-92 9 86 0
-92 -9 -86 0
91 85 -88 0
91 -85 88 0
-91 85 88 0
-91 -85 -88 0
93 -90 92 0
93 -90 88 0
-93 90 92 0
-93 90 88 0
93 -94 -90 0
-93 -94 90 0
93 94 90 -92 -88 0
-93 94 -90 -92 -88 0
94 92 -88 0
-94 92 88 0
95 -92 0
-95 92 0
96 -93 76 0
96 -93 94 0
-96 93 76 0
-96 93 94 0
96 -93 92 -78 0
96 -93 -92 78 0
-96 93 92 -78 0
-96 93 -92 78 0
96 93 -76 92 78 -94 0
96 93 -76 -92 -78 -94 0
-96 -93 -76 92 78 -94 0
-96 -93 -76 -92 -78 -94 0
98 76 -92 0
98 -76 92 0
-98 76 92 0
-98 -76 -92 0
97 78 -94 0
97 -78 94 0
-97 78 94 0
-97 -78 -94 0
99 -96 98 0
99 -96 97 0
-99 96 98 0
-99 96 97 0
99 -96 76 -94 0
99 -96 -76 94 0
-99 96 76 -94 0
-99 96 -76 94 0
99 96 -98 76 94 -97 0
99 96 -98 -76 -94 -97 0
-99 -96 -98 76 94 -97 0
-99 -96 -98 -76 -94 -97 0
101 98 -76 0
101 -98 76 0
-101 98 76 0
-101 -98 -76 0
100 94 -97 0
100 -94 97 0
-100 94 97 0
-100 -94 -97 0
102 -99 101 0
102 -99 100 0
-102 99 101 0
-102 99 100 0
102 -99 98 -97 0
102 -99 -98 97 0
-102 99 98 -97 0
-102 99 -98 97 0
102 99 -101 98 97 -100 0
102 99 -101 -98 -97 -100 0
-102 -99 -101 98 97 -100 0
-102 -99 -101 -98 -97 -100 0
104 101 -98 0
104 -101 98 0
-104 101 98 0
-104 -101 -98 0
103 97 -100 0
103 -97 100 0
-103 97 100 0
-103 -97 -100 0
105 106 -102 0
105 -102 101 0
-105 106 102 0
-105 102 101 0
105 -102 -103 0
-105 102 -103 0
105 -106 102 -101 103 0
-105 -106 -102 -101 103 0
106 101 -103 0
-106 101 103 0
107 -101 0
-107 101 0
108 -105 104 0
108 -105 100 0
-108 105 104 0
-108 105 100 0
108 -109 -105 0
-108 -109 105 0
108 109 105 -104 -100 0
-108 109 -105 -104 -100 0
109 104 -100 0
-109 104 100 0
-110 104 0
109 -110 -100 0
-109 -110 100 0
109 110 -104 100 0
-109 110 -104 -100 0
-111 104 0
109 -111 100 0
-109 -111 -100 0
109 111 -104 -100 0
-109 111 -104 100 0
112 -108 9 0
112 -108 91 0
-112 108 9 0
-112 108 91 0
112 108 -9 -91 0
-112 -108 -9 -91 0
113 9 -91 0
113 -9 91 0
-113 9 91 0
-113 -9 -91 0
114 -112 9 0
114 -112 43 0
-114 112 9 0
-114 112 43 0
114 -112 39 -113 0
114 -112 -39 113 0
-114 112 39 -113 0
-114 112 -39 113 0
114 112 -9 39 113 -43 0
114 112 -9 -39 -113 -43 0
-114 -112 -9 39 113 -43 0
-114 -112 -9 -39 -113 -43 0
116 9 -39 0
116 -9 39 0
-116 9 39 0
-116 -9 -39 0
115 113 -43 0
115 -113 43 0
-115 113 43 0
-115 -113 -43 0
117 -114 116 0
-117 114 116 0
117 -114 -43 0
-117 114 -43 0
117 114 -116 43 0
-117 -114 -116 43 0
118 116 -43 0
118 -116 43 0
-118 116 43 0
-118 -116 -43 0
119 -117 9 0
119 -117 118 0
-119 117 9 0
-119 117 118 0
119 -117 116 -115 0
119 -117 -116 115 0
-119 117 116 -115 0
-119 117 -116 115 0
119 117 -9 116 115 -118 0
119 117 -9 -116 -115 -118 0
-119 -117 -9 116 115 -118 0
-119 -117 -9 -116 -115 -118 0
121 9 -116 0
121 -9 116 0
-121 9 116 0
-121 -9 -116 0
120 115 -118 0
120 -115 118 0
-120 115 118 0
-120 -115 -118 0
122 -119 121 0
122 -119 118 0
-122 119 121 0
-122 119 118 0
122 119 -121 -118 0
-122 -119 -121 -118 0
123 121 -118 0
123 -121 118 0
-123 121 118 0
-123 -121 -118 0
124 -122 58 0
124 -122 123 0
-124 122 58 0
-124 122 123 0
124 -122 121 -60 0
124 -122 -121 60 0
-124 122 121 -60 0
-124 122 -121 60 0
124 122 -58 121 60 -123 0
124 122 -58 -121 -60 -123 0
-124 -122 -58 121 60 -123 0
-124 -122 -58 -121 -60 -123 0
126 58 -121 0
126 -58 121 0
-126 58 121 0
-126 -58 -121 0
125 60 -123 0
125 -60 123 0
-125 60 123 0
-125 -60 -123 0
127 -124 126 0
127 -124 125 0
-127 124 126 0
-127 124 125 0
127 -124 58 -123 0
127 -124 -58 123 0
-127 124 58 -123 0
-127 124 -58 123 0
127 124 -126 58 123 -125 0
127 124 -126 -58 -123 -125 0
-127 -124 -126 58 123 -125 0
-127 -124 -126 -58 -123 -125 0
129 126 -58 0
129 -126 58 0
-129 126 58 0
-129 -126 -58 0
128 123 -125 0
128 -123 125 0
-128 123 125 0
-128 -123 -125 0
130 -127 129 0
130 -127 128 0
-130 127 129 0
-130 127 128 0
130 -127 126 -125 0
130 -127 -126 125 0
-130 127 126 -125 0
-130 127 -126 125 0
130 127 -129 126 125 -128 0
130 127 -129 -126 -125 -128 0
-130 -127 -129 126 125 -128 0
-130 -127 -129 -126 -125 -128 0
132 129 -126 0
132 -129 126 0
-132 129 126 0
-132 -129 -126 0
131 125 -128 0
131 -125 128 0
-131 125 128 0
-131 -125 -128 0
133 -130 129 0
133 -130 131 0
-133 130 129 0
-133 130 131 0
133 130 -129 -131 0
-133 -130 -129 -131 0
134 129 -131 0
134 -129 131 0
-134 129 131 0
-134 -129 -131 0
135 136 -133 0
135 -133 134 0
-135 136 133 0
-135 133 134 0
135 -133 -129 0
-135 133 -129 0
135 -136 133 129 -134 0
-135 -136 -133 129 -134 0
136 -129 134 0
-136 129 134 0
-137 134 0
136 -137 -129 0
-136 -137 129 0
136 137 129 -134 0
-136 137 -129 -134 0
-138 134 0
136 -138 129 0
-136 -138 -129 0
136 138 -129 -134 0
-136 138 129 -134 0
139 -135 136 0
139 -135 134 0
-139 135 136 0
-139 135 134 0
139 135 -136 -134 0
-139 -135 -136 -134 0
140 136 -134 0
140 -136 134 0
-140 136 134 0
-140 -136 -134 0
141 -139 101 0
141 -139 140 0
-141 139 101 0
-141 139 140 0
141 -139 136 -106 0
141 -139 -136 106 0
-141 139 136 -106 0
-141 139 -136 106 0
141 139 -101 136 106 -140 0
141 139 -101 -136 -106 -140 0
-141 -139 -101 136 106 -140 0
-141 -139 -101 -136 -106 -140 0
143 101 -136 0
143 -101 136 0
-143 101 136 0
-143 -101 -136 0
142 106 -140 0
142 -106 140 0
-142 106 140 0
-142 -106 -140 0
144 -141 143 0
144 -141 140 0
-144 141 143 0
-144 141 140 0
144 -145 -141 0
-144 -145 141 0
144 145 141 -143 -140 0
-144 145 -141 -143 -140 0
145 143 -140 0
-145 143 140 0
146 -143 0
-146 143 0
147 -144 101 0
147 -144 145 0
-147 144 101 0
-147 144 145 0
147 -144 143 -142 0
147 -144 -143 142 0
-147 144 143 -142 0
-147 144 -143 142 0
147 144 -101 143 142 -145 0
147 144 -101 -143 -142 -145 0
-147 -144 -101 143 142 -145 0
-147 -144 -101 -143 -142 -145 0
149 101 -143 0
149 -101 143 0
-149 101 143 0
-149 -101 -143 0
148 142 -145 0
148 -142 145 0
-148 142 145 0
-148 -142 -145 0
150 151 -147 0
150 -147 149 0
-150 151 147 0
-150 147 149 0
150 -147 -145 0
-150 147 -145 0
150 -151 147 -149 145 0
-150 -151 -147 -149 145 0
151 149 -145 0
-151 149 145 0
152 -149 0
-152 149 0
153 -150 101 0
153 -150 148 0
-153 150 101 0
-153 150 148 0
153 150 -101 -148 0
-153 -150 -101 -148 0
154 101 -148 0
154 -101 148 0
-154 101 148 0
-154 -101 -148 0
155 156 -153 0
155 -153 154 0
-155 156 153 0
-155 153 154 0
155 -153 -101 0
-155 153 -101 0
155 -156 153 101 -154 0
-155 -156 -153 101 -154 0
156 -101 154 0
-156 101 154 0
-157 154 0
156 -157 -101 0
-156 -157 101 0
156 157 101 -154 0
-156 157 -101 -154 0
-158 154 0
156 -158 101 0
-156 -158 -101 0
156 158 -101 -154 0
-156 158 101 -154 0
159 -155 156 0
159 -155 154 0
-159 155 156 0
-159 155 154 0
159 155 -156 -154 0
-159 -155 -156 -154 0
160 156 -154 0
160 -156 154 0
-160 156 154 0
-160 -156 -154 0
161 -159 104 0
161 -159 151 0
-161 159 104 0
-161 159 151 0
161 -159 149 -109 0
161 -159 -149 109 0
-161 159 149 -109 0
-161 159 -149 109 0
161 159 -104 149 109 -151 0
161 159 -104 -149 -109 -151 0
-161 -159 -104 149 109 -151 0
-161 -159 -104 -149 -109 -151 0
163 104 -149 0
163 -104 149 0
-163 104 149 0
-163 -104 -149 0
162 109 -151 0
162 -109 151 0
-162 109 151 0
-162 -109 -151 0
164 -161 163 0
164 -161 151 0
-164 161 163 0
-164 161 151 0
164 -165 -161 0
-164 -165 161 0
164 165 161 -163 -151 0
-164 165 -161 -163 -151 0
165 163 -151 0
-165 163 151 0
-166 163 0
165 -166 -151 0
-165 -166 151 0
165 166 -163 151 0
-165 166 -163 -151 0
-167 163 0
165 -167 151 0
-165 -167 -151 0
165 167 -163 -151 0
-165 167 -163 151 0
168 -164 104 0
168 -164 165 0
-168 164 104 0
-168 164 165 0
168 -164 163 -162 0
168 -164 -163 162 0
-168 164 163 -162 0
-168 164 -163 162 0
168 164 -104 163 162 -165 0
168 164 -104 -163 -162 -165 0
-168 -164 -104 163 162 -165 0
-168 -164 -104 -163 -162 -165 0
170 104 -163 0
170 -104 163 0
-170 104 163 0
-170 -104 -163 0
169 162 -165 0
169 -162 165 0
-169 162 165 0
-169 -162 -165 0
171 -168 170 0
171 -168 165 0
-171 168 170 0
-171 168 165 0
171 -172 -168 0
-171 -172 168 0
171 172 168 -170 -165 0
-171 172 -168 -170 -165 0
172 170 -165 0
-172 170 165 0
-173 170 0
172 -173 -165 0
-172 -173 165 0
172 173 -170 165 0
-172 173 -170 -165 0
-174 170 0
172 -174 165 0
-172 -174 -165 0
172 174 -170 -165 0
-172 174 -170 165 0
175 176 -171 0
175 -171 104 0
-175 176 171 0
-175 171 104 0
175 -171 -169 0
-175 171 -169 0
175 -176 171 -104 169 0
-175 -176 -171 -104 169 0
176 104 -169 0
-176 104 169 0
177 -104 0
-177 104 0
178 -175 104 0
178 -175 160 0
-178 175 104 0
-178 175 160 0
178 -175 156 -176 0
178 -175 -156 176 0
-178 175 156 -176 0
-178 175 -156 176 0
178 175 -104 156 176 -160 0
178 175 -104 -156 -176 -160 0
-178 -175 -104 156 176 -160 0
-178 -175 -104 -156 -176 -160 0
180 104 -156 0
180 -104 156 0
-180 104 156 0
-180 -104 -156 0
179 176 -160 0
179 -176 160 0
-179 176 160 0
-179 -176 -160 0
181 -178 180 0
181 -178 160 0
-181 178 180 0
-181 178 160 0
181 -182 -178 0
-181 -182 178 0
181 182 178 -180 -160 0
-181 182 -178 -180 -160 0
182 180 -160 0
-182 180 160 0
183 -180 0
-183 180 0
184 -181 104 0
184 -181 182 0
-184 181 104 0
-184 181 182 0
184 -181 180 -179 0
184 -181 -180 179 0
-184 181 180 -179 0
-184 181 -180 179 0
184 181 -104 180 179 -182 0
184 181 -104 -180 -179 -182 0
-184 -181 -104 180 179 -182 0
-184 -181 -104 -180 -179 -182 0
186 104 -180 0
186 -104 180 0
-186 104 180 0
-186 -104 -180 0
185 179 -182 0
185 -179 182 0
-185 179 182 0
-185 -179 -182 0
187 188 -184 0
187 -184 186 0
-187 188 184 0
-187 184 186 0
187 -184 -182 0
-187 184 -182 0
187 -188 184 -186 182 0
-187 -188 -184 -186 182 0
188 186 -182 0
-188 186 182 0
189 -186 0
-189 186 0
190 -187 104 0
190 -187 185 0
-190 187 104 0
-190 187 185 0
190 187 -104 -185 0
-190 -187 -104 -185 0
191 104 -185 0
191 -104 185 0
-191 104 185 0
-191 -104 -185 0
192 193 -190 0
192 -190 191 0
-192 193 190 0
-192 190 191 0
192 -190 -104 0
-192 190 -104 0
192 -193 190 104 -191 0
-192 -193 -190 104 -191 0
193 -104 191 0
-193 104 191 0
-194 191 0
193 -194 -104 0
-193 -194 104 0
193 194 104 -191 0
-193 194 -104 -191 0
-195 191 0
193 -195 104 0
-193 -195 -104 0
193 195 -104 -191 0
-193 195 104 -191 0
196 -192 193 0
196 -192 191 0
-196 192 193 0
-196 192 191 0
196 192 -193 -191 0
-196 -192 -193 -191 0
197 193 -191 0
197 -193 191 0
-197 193 191 0
-197 -193 -191 0
198 -196 132 0
198 -196 128 0
-198 196 132 0
-198 196 128 0
198 -199 -196 0
-198 -199 196 0
198 199 196 -132 -128 0
-198 199 -196 -132 -128 0
199 132 -128 0
-199 132 128 0
-200 132 0
199 -200 -128 0
-199 -200 128 0
199 200 -132 128 0
-199 200 -132 -128 0
-201 132 0
199 -201 128 0
-199 -201 -128 0
199 201 -132 -128 0
-199 201 -132 128 0
202 -198 132 0
202 -198 172 0
-202 198 132 0
-202 198 172 0
202 -198 170 -199 0
202 -198 -170 199 0
-202 198 170 -199 0
-202 198 -170 199 0
202 198 -132 170 199 -172 0
202 198 -132 -170 -199 -172 0
-202 -198 -132 170 199 -172 0
-202 -198 -132 -170 -199 -172 0
204 132 -170 0
204 -132 170 0
-204 132 170 0
-204 -132 -170 0
203 199 -172 0
203 -199 172 0
-203 199 172 0
-203 -199 -172 0
205 -202 204 0
205 -202 172 0
-205 202 204 0
-205 202 172 0
205 -206 -202 0
-205 -206 202 0
205 206 202 -204 -172 0
-205 206 -202 -204 -172 0
206 204 -172 0
-206 204 172 0
-207 204 0
206 -207 -172 0
-206 -207 172 0
206 207 -204 172 0
-206 207 -204 -172 0
-208 204 0
206 -208 172 0
-206 -208 -172 0
206 208 -204 -172 0
-206 208 -204 172 0
209 -205 132 0
209 -205 206 0
-209 205 132 0
-209 205 206 0
209 -205 204 -203 0
209 -205 -204 203 0
-209 205 204 -203 0
-209 205 -204 203 0
209 205 -132 204 203 -206 0
209 205 -132 -204 -203 -206 0
-209 -205 -132 204 203 -206 0
-209 -205 -132 -204 -203 -206 0
211 132 -204 0
211 -132 204 0
-211 132 204 0
-211 -132 -204 0
210 203 -206 0
210 -203 206 0
-210 203 206 0
-210 -203 -206 0
212 -209 211 0
212 -209 206 0
-212 209 211 0
-212 209 206 0
212 -213 -209 0
-212 -213 209 0
212 213 209 -211 -206 0
-212 213 -209 -211 -206 0
213 211 -206 0
-213 211 206 0
-214 211 0
213 -214 -206 0
-213 -214 206 0
213 214 -211 206 0
-213 214 -211 -206 0
-215 211 0
213 -215 206 0
-213 -215 -206 0
213 215 -211 -206 0
-213 215 -211 206 0
216 -212 132 0
216 -212 210 0
-216 212 132 0
-216 212 210 0
216 -217 -212 0
-216 -217 212 0
216 217 212 -132 -210 0
-216 217 -212 -132 -210 0
217 132 -210 0
-217 132 210 0
-218 132 0
217 -218 -210 0
-217 -218 210 0
217 218 -132 210 0
-217 218 -132 -210 0
-219 132 0
217 -219 210 0
-217 -219 -210 0
217 219 -132 -210 0
-217 219 -132 210 0
220 -216 132 0
220 -216 188 0
-220 216 132 0
-220 216 188 0
220 -216 186 -217 0
220 -216 -186 217 0
-220 216 186 -217 0
-220 216 -186 217 0
220 216 -132 186 217 -188 0
220 216 -132 -186 -217 -188 0
-220 -216 -132 186 217 -188 0
-220 -216 -132 -186 -217 -188 0
222 132 -186 0
222 -132 186 0
-222 132 186 0
-222 -132 -186 0
221 217 -188 0
221 -217 188 0
-221 217 188 0
-221 -217 -188 0
223 -220 222 0
223 -220 188 0
-223 220 222 0
-223 220 188 0
223 -224 -220 0
-223 -224 220 0
223 224 220 -222 -188 0
-223 224 -220 -222 -188 0
224 222 -188 0
-224 222 188 0
-225 222 0
224 -225 -188 0
-224 -225 188 0
224 225 -222 188 0
-224 225 -222 -188 0
-226 222 0
224 -226 188 0
-224 -226 -188 0
224 226 -222 -188 0
-224 226 -222 188 0
227 -223 132 0
227 -223 224 0
-227 223 132 0
-227 223 224 0
227 -223 222 -221 0
227 -223 -222 221 0
-227 223 222 -221 0
-227 223 -222 221 0
227 223 -132 222 221 -224 0
227 223 -132 -222 -221 -224 0
-227 -223 -132 222 221 -224 0
-227 -223 -132 -222 -221 -224 0
229 132 -222 0
229 -132 222 0
-229 132 222 0
-229 -132 -222 0
228 221 -224 0
228 -221 224 0
-228 221 224 0
-228 -221 -224 0
230 -227 229 0
230 -227 224 0
-230 227 229 0
-230 227 224 0
230 -231 -227 0
-230 -231 227 0
230 231 227 -229 -224 0
-230 231 -227 -229 -224 0
231 229 -224 0
-231 229 224 0
-232 229 0
231 -232 -224 0
-231 -232 224 0
231 232 -229 224 0
-231 232 -229 -224 0
-233 229 0
231 -233 224 0
-231 -233 -224 0
231 233 -229 -224 0
-231 233 -229 224 0
234 235 -230 0
234 -230 132 0
-234 235 230 0
-234 230 132 0
234 -230 -228 0
-234 230 -228 0
234 -235 230 -132 228 0
-234 -235 -230 -132 228 0
235 132 -228 0
-235 132 228 0
236 -132 0
-236 132 0
237 -234 132 0
237 -234 197 0
-237 234 132 0
-237 234 197 0
237 -234 193 -235 0
237 -234 -193 235 0
-237 234 193 -235 0
-237 234 -193 235 0
237 234 -132 193 235 -197 0
237 234 -132 -193 -235 -197 0
-237 -234 -132 193 235 -197 0
-237 -234 -132 -193 -235 -197 0
239 132 -193 0
239 -132 193 0
-239 132 193 0
-239 -132 -193 0
238 235 -197 0
238 -235 197 0
-238 235 197 0
-238 -235 -197 0
240 -237 239 0
240 -237 197 0
-240 237 239 0
-240 237 197 0
240 -241 -237 0
-240 -241 237 0
240 241 237 -239 -197 0
-240 241 -237 -239 -197 0
241 239 -197 0
-241 239 197 0
242 -239 0
-242 239 0
243 -240 132 0
243 -240 241 0
-243 240 132 0
-243 240 241 0
243 -240 239 -238 0
243 -240 -239 238 0
-243 240 239 -238 0
-243 240 -239 238 0
243 240 -132 239 238 -241 0
243 240 -132 -239 -238 -241 0
-243 -240 -132 239 238 -241 0
-243 -240 -132 -239 -238 -241 0
245 132 -239 0
245 -132 239 0
-245 132 239 0
-245 -132 -239 0
244 238 -241 0
244 -238 241 0
-244 238 241 0
-244 -238 -241 0
246 247 -243 0
246 -243 245 0
-246 247 243 0
-246 243 245 0
246 -243 -241 0
-246 243 -241 0
246 -247 243 -245 241 0
-246 -247 -243 -245 241 0
247 245 -241 0
-247 245 241 0
248 -245 0
-248 245 0
249 -246 132 0
249 -246 244 0
-249 246 132 0
-249 246 244 0
249 246 -132 -244 0
-249 -246 -132 -244 0
250 132 -244 0
250 -132 244 0
-250 132 244 0
-250 -132 -244 0
251 252 -249 0
251 -249 250 0
-251 252 249 0
-251 249 250 0
251 -249 -132 0
-251 249 -132 0
251 -252 249 132 -250 0
-251 -252 -249 132 -250 0
252 -132 250 0
-252 132 250 0
-253 250 0
252 -253 -132 0
-252 -253 132 0
252 253 132 -250 0
-252 253 -132 -250 0
-254 250 0
252 -254 132 0
-252 -254 -132 0
252 254 -132 -250 0
-252 254 132 -250 0
255 -251 252 0
255 -251 250 0
-255 251 252 0
-255 251 250 0
255 251 -252 -250 0
-255 -251 -252 -250 0
256 252 -250 0
256 -252 250 0
-256 252 250 0
-256 -252 -250 0
-211 0
-229 0
-231 0
-245 0
-247 0
-252 0
-256 0
-9 0
-120 0
